c CNF file corresponding to a (partial) station packing problem.
p cnf 1619 229
1 2 3 4 5 6 7 8 9 10 11 12 13 14 0
-1 -2 0
-1 -3 0
-1 -4 0
-1 -5 0
-1 -6 0
-1 -7 0
-1 -8 0
-1 -9 0
-1 -10 0
-1 -11 0
-1 -12 0
-1 -13 0
-1 -14 0
-2 -3 0
-2 -4 0
-2 -5 0
-2 -6 0
-2 -7 0
-2 -8 0
-2 -9 0
-2 -10 0
-2 -11 0
-2 -12 0
-2 -13 0
-2 -14 0
-3 -4 0
-3 -5 0
-3 -6 0
-3 -7 0
-3 -8 0
-3 -9 0
-3 -10 0
-3 -11 0
-3 -12 0
-3 -13 0
-3 -14 0
-4 -5 0
-4 -6 0
-4 -7 0
-4 -8 0
-4 -9 0
-4 -10 0
-4 -11 0
-4 -12 0
-4 -13 0
-4 -14 0
-5 -6 0
-5 -7 0
-5 -8 0
-5 -9 0
-5 -10 0
-5 -11 0
-5 -12 0
-5 -13 0
-5 -14 0
-6 -7 0
-6 -8 0
-6 -9 0
-6 -10 0
-6 -11 0
-6 -12 0
-6 -13 0
-6 -14 0
-7 -8 0
-7 -9 0
-7 -10 0
-7 -11 0
-7 -12 0
-7 -13 0
-7 -14 0
-8 -9 0
-8 -10 0
-8 -11 0
-8 -12 0
-8 -13 0
-8 -14 0
-9 -10 0
-9 -11 0
-9 -12 0
-9 -13 0
-9 -14 0
-10 -11 0
-10 -12 0
-10 -13 0
-10 -14 0
-11 -12 0
-11 -13 0
-11 -14 0
-12 -13 0
-12 -14 0
-13 -14 0
1603 1604 1605 1606 1607 1608 1609 1610 1611 1612 1613 1614 1615 1616 1617 1618 1619 0
-1603 -1604 0
-1603 -1605 0
-1603 -1606 0
-1603 -1607 0
-1603 -1608 0
-1603 -1609 0
-1603 -1610 0
-1603 -1611 0
-1603 -1612 0
-1603 -1613 0
-1603 -1614 0
-1603 -1615 0
-1603 -1616 0
-1603 -1617 0
-1603 -1618 0
-1603 -1619 0
-1604 -1605 0
-1604 -1606 0
-1604 -1607 0
-1604 -1608 0
-1604 -1609 0
-1604 -1610 0
-1604 -1611 0
-1604 -1612 0
-1604 -1613 0
-1604 -1614 0
-1604 -1615 0
-1604 -1616 0
-1604 -1617 0
-1604 -1618 0
-1604 -1619 0
-1605 -1606 0
-1605 -1607 0
-1605 -1608 0
-1605 -1609 0
-1605 -1610 0
-1605 -1611 0
-1605 -1612 0
-1605 -1613 0
-1605 -1614 0
-1605 -1615 0
-1605 -1616 0
-1605 -1617 0
-1605 -1618 0
-1605 -1619 0
-1606 -1607 0
-1606 -1608 0
-1606 -1609 0
-1606 -1610 0
-1606 -1611 0
-1606 -1612 0
-1606 -1613 0
-1606 -1614 0
-1606 -1615 0
-1606 -1616 0
-1606 -1617 0
-1606 -1618 0
-1606 -1619 0
-1607 -1608 0
-1607 -1609 0
-1607 -1610 0
-1607 -1611 0
-1607 -1612 0
-1607 -1613 0
-1607 -1614 0
-1607 -1615 0
-1607 -1616 0
-1607 -1617 0
-1607 -1618 0
-1607 -1619 0
-1608 -1609 0
-1608 -1610 0
-1608 -1611 0
-1608 -1612 0
-1608 -1613 0
-1608 -1614 0
-1608 -1615 0
-1608 -1616 0
-1608 -1617 0
-1608 -1618 0
-1608 -1619 0
-1609 -1610 0
-1609 -1611 0
-1609 -1612 0
-1609 -1613 0
-1609 -1614 0
-1609 -1615 0
-1609 -1616 0
-1609 -1617 0
-1609 -1618 0
-1609 -1619 0
-1610 -1611 0
-1610 -1612 0
-1610 -1613 0
-1610 -1614 0
-1610 -1615 0
-1610 -1616 0
-1610 -1617 0
-1610 -1618 0
-1610 -1619 0
-1611 -1612 0
-1611 -1613 0
-1611 -1614 0
-1611 -1615 0
-1611 -1616 0
-1611 -1617 0
-1611 -1618 0
-1611 -1619 0
-1612 -1613 0
-1612 -1614 0
-1612 -1615 0
-1612 -1616 0
-1612 -1617 0
-1612 -1618 0
-1612 -1619 0
-1613 -1614 0
-1613 -1615 0
-1613 -1616 0
-1613 -1617 0
-1613 -1618 0
-1613 -1619 0
-1614 -1615 0
-1614 -1616 0
-1614 -1617 0
-1614 -1618 0
-1614 -1619 0
-1615 -1616 0
-1615 -1617 0
-1615 -1618 0
-1615 -1619 0
-1616 -1617 0
-1616 -1618 0
-1616 -1619 0
-1617 -1618 0
-1617 -1619 0
-1618 -1619 0
